Name:		TESTE1
Optimal value:	-1
#Vehicles:	1
Capacity:	10
Depot Node:	1
#Nodes:		3
#Edges:		1
#Arcs:		1
#Required N:	1
#Required E:	1
#Required A:	1

ReN.	DEMAND	S. COST
N1	2	1

ReE.	From N.	To N.	T. COST	DEMAND	S. COST
E1	1	2	5	3	2

EDGE	FROM N.	TO N.	T. COST
NrE1	2	3	7

ReA.	FROM N.	TO N.	T. COST	DEMAND	S. COST
A1	3	1	6	4	1

ARC	FROM N.	TO N.	T. COST
NrA1	1	3	8
